desiredZ=[1];
nNurses = 146;
hours = 55;
demand = [2 2 30 35 15 32 33 11 27 28 24 8 1 12 9 19 12 14 11 5 10 24 10 32 31 16 10 23 32 29 7 7 1 34 10 14 28 10 26 0 14 0 30 10 29 27 4 10 29 25 15 4 6 12 18];
minHours = 16;
maxHours = 28;
maxConsec = 19;
maxPresence = 51;